100
27 93
33 27
29 39
7 81
1 59
49 9
21 53
79 89
81 83
85 11
45 9
7 65
95 27
81 85
37 81
69 69
15 95
89 75
33 93
57 83
11 95
3 57
45 11
43 61
35 43
19 83
83 69
85 77
19 39
83 87
1 13
15 39
83 17
41 97
31 61
59 69
29 15
93 83
63 97
65 57
15 69
31 97
57 9
85 37
21 29
53 11
15 77
41 69
45 17
13 25
63 57
95 5
55 91
3 31
47 7
61 69
85 35
89 81
45 47
65 93
DEMAND_SECTION Best value: 1408
0 
16 
2 
7 
11 
9 
17 
21 
23 
10 
6 
19 
18 
20 
13 
5 
11 
24 
2 
3 
1 
5 
20 
23 
24 
18 
19 
2 
17 
17 
9 
11 
2 
6 
9 
5 
9 
2 
14 
19 
11 
21 
20 
21 
18 
48 
1 
17 
42 
2 
4 
24 
18 
21 
11 
9 
18 
22 
9 
23 